;; Preprocessed for Astral solver
(set-info :status unsat)
;; variables
(declare-const x0 Loc)
(declare-const x1 Loc)
(declare-const x2 Loc)
(declare-const x3 Loc)
(declare-const x4 Loc)
(declare-const x5 Loc)
(declare-const x6 Loc)
(declare-const x7 Loc)
(declare-const x8 Loc)
(declare-const x9 Loc)
(declare-const x10 Loc)
(declare-const x11 Loc)
(declare-const x12 Loc)
(declare-const x13 Loc)
(declare-const x14 Loc)
(declare-const x15 Loc)
(declare-const x16 Loc)
(declare-const x17 Loc)
(declare-const x18 Loc)
(declare-const x19 Loc)
(declare-const x20 Loc)
(declare-const x21 Loc)
(declare-const x22 Loc)
(declare-const x23 Loc)

(assert 
		(sep 
			(= nil nil)
		(sep 
			(pto x14 x17)
			(pto x6 x11)
			(pto x8 x18)
			(ls x2 x15 )
			(ls x4 x3 )
			(pto x12 x5)
			(pto x10 x16)
			(ls x1 x17 )
			(ls x5 x6 )
			(ls x19 x13 )
			(ls x16 x15 )
			(ls x3 x17 )
			(ls x7 x14 )
			(pto x15 x12)
			(ls x13 x3 )
			(ls x9 x10 )
			(pto x11 x4)
			(pto x17 x8)
			(pto x18 x6)
		)

		)

)

(assert (not 
		(sep 
			(ls x1 x17 )
			(ls x19 x3 )
			(ls x18 x6 )
			(ls x9 x10 )
			(ls x10 x16 )
			(ls x2 x15 )
			(ls x16 x12 )
			(ls x7 x17 )
			(ls x12 x18 )
		)

))

(check-sat)
